submitit INFO (2023-04-29 16:25:38,866) - Starting with JobEnvironment(job_id=27467, hostname=cpunode3, local_rank=4(5), node=0(1), global_rank=4(5))
submitit INFO (2023-04-29 16:25:38,866) - Loading pickle: /h/30/pashootan/Matrix-Mult-CP/src/../logs/2x2x2_4_Apr29_16:25:36/27467_submitted.pkl
 ! --------------------------------------------------- CP Optimizer 22.1.1.0 --
 ! Satisfiability problem - 48 variables, 99 constraints
 ! TimeLimit            = 172800
 ! Workers              = 8
 ! LogPeriod            = 10000000
 ! RandomSeed           = 3165
 ! Initial process time : 0.00s (0.00s extraction + 0.00s propagation)
 !  . Log search space  : 71.4 (before), 71.4 (after)
 !  . Memory usage      : 397.6 kB (before), 397.6 kB (after)
 ! Using parallel search with 8 workers.
 ! ----------------------------------------------------------------------------
 !               Branches  Non-fixed    W       Branch decision
 ! ----------------------------------------------------------------------------
 ! Search completed, model has no solution.
 ! ----------------------------------------------------------------------------
 ! Number of branches     : 74778
 ! Number of fails        : 36463
 ! Total memory usage     : 7.0 MB (7.0 MB CP Optimizer + 0.0 MB Concert)
 ! Time spent in solve    : 0.15s (0.15s engine + 0.00s extraction)
 ! Search speed (br. / s) : 498520.0
 ! ----------------------------------------------------------------------------
Infeasible
Saving stats to: /h/30/pashootan/Matrix-Mult-CP/logs/2x2x2_4_Apr29_16:25:36/27467_4_stats.csv
submitit INFO (2023-04-29 16:25:39,638) - Job completed successfully
